c User generated cnf file
p cnf 8 42
8 3 -6 0 
6 5 -1 0 
1 -8 6 0 
6 1 -6 0 
-5 4 5 0 
5 2 -3 0 
-7 5 1 0 
1 -6 7 0 
4 -8 4 0 
4 1 -8 0 
2 5 -1 0 
5 1 -7 0 
7 3 -1 0 
4 -3 5 0 
3 4 -1 0 
3 -7 7 0 
2 -6 2 0 
-7 7 1 0 
-4 2 8 0 
7 5 -1 0 
-7 6 5 0 
4 3 -5 0 
6 -2 3 0 
7 -1 8 0 
2 -8 1 0 
3 -2 8 0 
-8 6 2 0 
1 2 -1 0 
4 -4 6 0 
6 2 -3 0 
-4 1 8 0 
-3 3 8 0 
-4 8 6 0 
7 -7 8 0 
6 8 -3 0 
-8 3 3 0 
-8 2 7 0 
2 8 -7 0 
-2 2 4 0 
4 7 -4 0 
6 -2 6 0 
5 5 -1 0 
